AME : levi30_23
COMMENT : 30: 40x18 -city problem (levikoppenhol)
TYPE : TSP
DIMENSION : 30
EDGE_WEIGHT_TYPE : EUC_2D
NODE_COORD_SECTION
1 6 2
2 1 1
3 11 8
4 0 9
5 14 40
6 17 21
7 17 4
8 13 12
9 5 33
10 9 1
11 16 4
12 14 36
13 0 40
14 5 5
15 10 40
16 3 13
17 5 10
18 5 37
19 0 24
20 7 0
21 7 21
22 14 0
23 16 6
24 6 19
25 15 14
26 1 31
27 6 7
28 15 32
29 6 36
30 6 23
EOF